nApps = 211
nRes = 9
nActs = 436
nNetworks = 6

assignmentToResources = [1,2,2,3,1,2,1,1,2,2,1,3,2,2,3,1,1,3,2,2,1,2,2,2,3,3,2,3,3,2,3,2,2,1,3,3,1,1,3,3,2,3,3,3,3,3,3,1,3,1,1,3,3,3,1,2,3,3,2,1,3,3,1,3,1,3,2,2,3,2,2,2,1,3,2,1,1,1,2,3,1,2,1,3,3,2,2,1,2,2,2,2,1,3,1,3,2,2,2,1,4,4,5,5,5,6,6,4,4,4,5,5,4,4,4,4,4,5,5,5,4,4,4,4,5,5,5,6,4,4,4,4,4,6,6,6,6,6,5,5,5,5,5,5,5,4,5,5,5,5,5,6,6,5,5,5,5,6,6,6,5,5,5,5,4,4,6,6,4,6,6,5,5,6,6,6,6,6,6,6,4,4,6,6,6,4,4,4,6,4,4,5,5,5,4,4,4,6,6,6,4,4,6,4,6,5,5,6,6,6,6,5,4,5,4,4,4,5,5,6,4,4,5,4,5,4,4,5,5,5,5,4,4,4,4,4,5,5,5,5,5,4,4,4,4,8,5,9,5,9,4,8,5,9,6,8,6,7,4,9,5,9,6,7,5,9,5,7,4,9,6,8,5,7,4,9,4,8,5,7,4,9,6,8,5,9,4,8,5,7,6,7,8,9,9,7,9,7,7,9,9,8,9,9,8,8,9,9,9,9,9,7,9,9,9,9,9,9,7,8,9,8,9,8,9,7,7,7,8,8,9,7,7,9,9,7,7,8,7,7,9,7,9,7,8,9,7,9,7,8,8,8,9,7,9,9,9,9,8,7,9,8,7,9,9,8,8,8,8,7,7,8,9,9,7,8,7,8,8,8,7,8,8,9,9,9,9,8,9,7,7,8,8,8,8,8,7,9,7,7,7,8,8,7,8,9,9,9,8,9,9,8,9,8,9,8,9,9,9,9,9,9,9,8,8,9,9,9,9,9,7,7,9,9,8,9];

processingTimes = [136,128,64,136,120,104,64,120,104,160,104,144,136,104,128,64,144,128,128,168,120,104,56,112,136,112,80,136,128,96,112,96,144,88,120,96,168,128,128,96,120,96,104,144,120,112,112,96,104,128,88,128,88,64,168,88,136,80,128,48,88,56,88,104,128,64,48,104,120,144,112,112,56,136,144,112,112,136,128,136,128,96,80,128,136,136,80,136,120,56,104,64,80,104,80,136,128,96,56,136,500,3,3,5,500,3,5,5,5,4,4,4,3,3,13,100,3,3,13,500,4,4,4,4,4,4,4,4,3,100,4,4,3,3,3,3,3,3,3,3,8,4,8,8,23,500,4,4,500,3,4,200,4,8,8,4,500,4,500,8,4,500,3,3,500,4,3,5,4,3,3,4,3,4,4,4,3,4,4,3,3,4,8,8,13,500,8,500,3,5,4,500,3,500,3,3,500,4,3,3,3,4,500,500,3,500,4,4,500,3,4,500,5,500,4,3,3,3,4,4,6,3,500,3,3,500,3,3,3,4,4,12,3,4,500,13,4,4,4,500,3,4,3,500,500,500,500,500,500,500,500,500,500,500,500,500,500,500,500,500,500,500,500,500,500,500,3,3,3,3,5,5,100,100,100,100,3,3,4,4,3,3,4,4,4,4,7,7,4,4,4,4,500,3,3,5,500,3,5,5,5,4,4,4,3,3,13,100,3,3,13,500,4,4,4,4,4,4,4,4,3,100,4,4,3,3,3,3,3,3,3,3,8,4,8,8,23,500,4,4,500,3,4,200,4,8,8,4,500,4,500,8,4,500,3,3,500,4,3,5,4,3,3,4,3,4,4,4,3,4,4,3,3,4,8,8,13,500,8,500,3,5,4,500,3,500,3,3,500,4,3,3,3,4,500,500,3,500,4,4,500,3,4,500,5,500,4,3,3,3,4,4,6,3,500,3,3,500,3,3,3,4,4,12,3,4,500,13,4,4,4,500,3,4,3,500];

periods = [100000,100000,10000,100000,100000,10000,100000,1000,100000,50000,100000,100000,20000,20000,100000,1000,10000,5000,10000,20000,100000,10000,50000,50000,2000,1000,100000,100000,20000,20000,100000,20000,1000,10000,20000,100000,10000,2000,10000,10000,50000,100000,20000,100000,10000,20000,10000,10000,20000,50000,10000,20000,10000,100000,100000,20000,100000,100000,10000,10000,100000,100000,10000,20000,20000,20000,10000,100000,10000,100000,20000,50000,100000,10000,20000,100000,100000,10000,10000,20000,20000,20000,20000,100000,20000,50000,1000,20000,50000,50000,100000,20000,20000,10000,10000,10000,20000,10000,100000,10000,100000,100000,100000,10000,10000,100000,100000,100000,100000,100000,10000,10000,100000,100000,100000,1000,1000,100000,50000,50000,100000,100000,100000,100000,20000,20000,20000,100000,1000,1000,1000,1000,10000,5000,5000,5000,5000,5000,10000,10000,10000,10000,20000,20000,20000,100000,10000,10000,50000,50000,50000,2000,1000,100000,100000,100000,100000,20000,20000,20000,20000,20000,1000,1000,10000,10000,20000,20000,2000,10000,10000,50000,50000,20000,100000,10000,20000,10000,10000,10000,10000,10000,20000,20000,20000,50000,50000,50000,20000,100000,100000,20000,20000,10000,10000,10000,10000,100000,100000,100000,10000,10000,20000,20000,20000,10000,10000,10000,10000,10000,10000,100000,100000,20000,100000,100000,10000,10000,10000,20000,20000,20000,20000,20000,50000,20000,20000,50000,50000,50000,100000,20000,10000,10000,10000,10000,20000,20000,20000,100000,100000,10000,10000,10000,100000,100000,100000,100000,100000,100000,100000,100000,100000,100000,100000,100000,100000,100000,100000,100000,100000,100000,100000,100000,100000,100000,100000,100000,100000,100000,10000,10000,1000,1000,1000,1000,20000,20000,20000,20000,10000,10000,10000,10000,10000,10000,10000,10000,10000,10000,20000,20000,100000,100000,100000,10000,10000,100000,100000,100000,100000,100000,10000,10000,100000,100000,100000,1000,1000,100000,50000,50000,100000,100000,100000,100000,20000,20000,20000,100000,1000,1000,1000,1000,10000,5000,5000,5000,5000,5000,10000,10000,10000,10000,20000,20000,20000,100000,10000,10000,50000,50000,50000,2000,1000,100000,100000,100000,100000,20000,20000,20000,20000,20000,1000,1000,10000,10000,20000,20000,2000,10000,10000,50000,50000,20000,100000,10000,20000,10000,10000,10000,10000,10000,20000,20000,20000,50000,50000,50000,20000,100000,100000,20000,20000,10000,10000,10000,10000,100000,100000,100000,10000,10000,20000,20000,20000,10000,10000,10000,10000,10000,10000,100000,100000,20000,100000,100000,10000,10000,10000,20000,20000,20000,20000,20000,50000,20000,20000,50000,50000,50000,100000,20000,10000,10000,10000,10000,20000,20000,20000,100000,100000,10000,10000,10000];

assignmentToClusters = [1,2,3,4,1,5,6,7,1,8,9,1,10,11,12,13,14,15,16,17,1,18,8,19,20,7,21,1,22,23,1,24,25,26,22,1,27,28,29,30,8,31,32,33,34,35,36,18,37,38,39,40,14,41,2,10,2,42,18,43,44,45,18,46,47,48,14,1,49,1,11,8,50,5,11,1,51,52,53,54,55,56,11,57,58,8,7,59,60,8,61,62,22,63,64,14,65,66,1,67,68,69,70,71,72,73,74,75,76,77,78,79,80,81,82,83,84,85,86,87,88,89,90,91,92,93,94,95,96,97,98,99,100,101,102,103,104,105,106,107,108,109,110,111,112,113,114,115,116,117,118,119,120,121,122,123,124,125,126,127,128,129,130,131,132,133,134,135,136,137,138,139,140,141,142,143,144,145,146,147,148,149,150,151,152,153,154,155,156,157,158,159,160,161,162,163,164,165,166,167,168,169,170,171,172,173,174,175,176,177,178,179,180,181,182,183,184,185,186,187,188,189,190,191,192,193,194,195,196,197,198,199,200,201,202,203,204,205,206,207,208,209,210,211,1,1,1,1,1,1,1,1,1,1,1,1,1,1,1,1,1,1,1,1,1,1,2,2,2,2,5,5,7,7,7,7,11,11,11,11,14,14,14,14,14,14,18,18,18,18,22,22,68,69,70,71,72,73,74,75,76,77,78,79,80,81,82,83,84,85,86,87,88,89,90,91,92,93,94,95,96,97,98,99,100,101,102,103,104,105,106,107,108,109,110,111,112,113,114,115,116,117,118,119,120,121,122,123,124,125,126,127,128,129,130,131,132,133,134,135,136,137,138,139,140,141,142,143,144,145,146,147,148,149,150,151,152,153,154,155,156,157,158,159,160,161,162,163,164,165,166,167,168,169,170,171,172,173,174,175,176,177,178,179,180,181,182,183,184,185,186,187,188,189,190,191,192,193,194,195,196,197,198,199,200,201,202,203,204,205,206,207,208,209,210,211];

precedenceAdjList = [[],[],[],[],[263],[271],[],[273],[245],[89],[],[247,249],[55],[70],[],[],[],[],[],[],[257],[287],[],[],[],[275],[],[259,261],[],[],[253],[],[],[],[28],[265],[],[],[],[],[89],[],[],[],[],[],[],[289],[],[],[],[],[281],[],[267],[],[269],[],[21],[],[],[],[],[],[],[],[283],[251],[],[255],[277],[],[],[],[],[],[],[],[],[],[],[],[279],[],[],[22],[],[],[],[85,71],[],[],[291],[],[],[285],[],[],[],[],[],[],[],[],[],[],[],[],[],[],[],[],[],[],[],[],[],[],[],[],[],[],[],[],[],[],[],[],[],[],[],[],[],[],[],[],[],[],[],[],[],[],[],[],[],[],[],[],[],[],[],[],[],[],[],[],[],[],[],[],[],[],[],[],[],[],[],[],[],[],[],[],[],[],[],[],[],[],[],[],[],[],[],[],[],[],[],[],[],[],[],[],[],[],[],[],[],[],[],[],[],[],[],[],[],[],[],[],[],[],[],[],[],[],[],[],[],[],[],[],[],[],[],[],[],[],[],[],[],[],[],[],[],[],[],[],[],[],[],[],[],[],[],[],[0],[244],[8],[246],[67],[248],[75],[250],[67],[252],[30],[254],[11],[256],[20],[258],[98],[260],[11],[262],[8],[264],[1],[266],[54],[268],[73],[270],[86],[272],[7],[274],[82],[276],[74],[278],[16],[280],[52],[282],[66],[284],[62],[286],[58],[288],[34],[290],[100],[101],[102],[103],[104],[105],[106],[107],[108],[109],[110],[111],[112],[113],[114],[115],[116],[117],[118],[119],[120],[121],[122],[123],[124],[125],[126],[127],[128],[129],[130],[131],[132],[133],[134],[135],[136],[137],[138],[139],[140],[141],[142],[143],[144],[145],[146],[147],[148],[149],[150],[151],[152],[153],[154],[155],[156],[157],[158],[159],[160],[161],[162],[163],[164],[165],[166],[167],[168],[169],[170],[171],[172],[173],[174],[175],[176],[177],[178],[179],[180],[181],[182],[183],[184],[185],[186],[187],[188],[189],[190],[191],[192],[193],[194],[195],[196],[197],[198],[199],[200],[201],[202],[203],[204],[205],[206],[207],[208],[209],[210],[211],[212],[213],[214],[215],[216],[217],[218],[219],[220],[221],[222],[223],[224],[225],[226],[227],[228],[229],[230],[231],[232],[233],[234],[235],[236],[237],[238],[239],[240],[241],[242],[243]];